set N := AA AB AC AD AE AF AG AH AI AJ AK AL AM AN AO AP AQ AR AS AT;

set T := AA AB AC AD AE AF AG AH AI AJ;

table	K={K}	u(K)	o(K)	o_(K):
	K	u	o	o_	:=
	1	34.51	AK	AL
	2	32.93	AM	AN
	3	18.56	AO	AP
	4	31.48	AQ	AR
	5	40.00	AS	AT
;

param c default 0 :=
AA	AB	1	119.91
AA	AB	2	128.42
AA	AB	3	111.33
AA	AB	4	81.03
AA	AB	5	131.46
AA	AC	1	44.53
AA	AC	2	47.69
AA	AC	3	41.35
AA	AC	4	30.10
AA	AC	5	48.82
AA	AD	1	239.83
AA	AD	2	256.84
AA	AD	3	222.66
AA	AD	4	162.07
AA	AD	5	262.91
AA	AE	1	191.55
AA	AE	2	205.14
AA	AE	3	177.84
AA	AE	4	129.45
AA	AE	5	209.99
AA	AF	1	66.80
AA	AF	2	71.54
AA	AF	3	62.02
AA	AF	4	45.14
AA	AF	5	73.23
AA	AG	1	222.67
AA	AG	2	238.47
AA	AG	3	206.74
AA	AG	4	150.48
AA	AG	5	244.11
AA	AH	1	271.81
AA	AH	2	291.09
AA	AH	3	252.35
AA	AH	4	183.68
AA	AH	5	297.97
AA	AI	1	1144.98
AA	AI	2	1226.20
AA	AI	3	1063.04
AA	AI	4	773.75
AA	AI	5	1255.21
AA	AJ	1	1049.40
AA	AJ	2	1123.84
AA	AJ	3	974.30
AA	AJ	4	709.16
AA	AJ	5	1150.42
AA	AK	1	291.74
AA	AK	2	312.43
AA	AK	3	270.86
AA	AK	4	197.15
AA	AK	5	319.82
AA	AL	1	183.43
AA	AL	2	196.44
AA	AL	3	170.30
AA	AL	4	123.96
AA	AL	5	201.08
AA	AM	1	278.92
AA	AM	2	298.70
AA	AM	3	258.96
AA	AM	4	188.49
AA	AM	5	305.77
AA	AN	1	1003.15
AA	AN	2	1074.31
AA	AN	3	931.36
AA	AN	4	677.91
AA	AN	5	1099.72
AA	AO	1	757.51
AA	AO	2	811.24
AA	AO	3	703.30
AA	AO	4	511.91
AA	AO	5	830.44
AA	AP	1	324.10
AA	AP	2	347.09
AA	AP	3	300.91
AA	AP	4	219.02
AA	AP	5	355.30
AA	AQ	1	434.07
AA	AQ	2	464.86
AA	AQ	3	403.00
AA	AQ	4	293.33
AA	AQ	5	475.85
AA	AR	1	172.45
AA	AR	2	184.68
AA	AR	3	160.11
AA	AR	4	116.54
AA	AR	5	189.05
AA	AS	1	210.60
AA	AS	2	225.53
AA	AS	3	195.52
AA	AS	4	142.32
AA	AS	5	230.87
AA	AT	1	521.51
AA	AT	2	558.50
AA	AT	3	484.18
AA	AT	4	352.42
AA	AT	5	571.71
AB	AA	1	119.91
AB	AA	2	128.42
AB	AA	3	111.33
AB	AA	4	81.03
AB	AA	5	131.46
AB	AC	1	111.34
AB	AC	2	119.23
AB	AC	3	103.37
AB	AC	4	75.24
AB	AC	5	122.05
AB	AD	1	119.91
AB	AD	2	128.42
AB	AD	3	111.33
AB	AD	4	81.03
AB	AD	5	131.46
AB	AE	1	111.34
AB	AE	2	119.23
AB	AE	3	103.37
AB	AE	4	75.24
AB	AE	5	122.05
AB	AF	1	157.45
AB	AF	2	168.62
AB	AF	3	146.18
AB	AF	4	106.40
AB	AF	5	172.61
AB	AG	1	119.91
AB	AG	2	128.42
AB	AG	3	111.33
AB	AG	4	81.03
AB	AG	5	131.46
AB	AH	1	157.45
AB	AH	2	168.62
AB	AH	3	146.18
AB	AH	4	106.40
AB	AH	5	172.61
AB	AI	1	1026.47
AB	AI	2	1099.28
AB	AI	3	953.01
AB	AI	4	693.67
AB	AI	5	1125.29
AB	AJ	1	929.91
AB	AJ	2	995.87
AB	AJ	3	863.36
AB	AJ	4	628.41
AB	AJ	5	1019.43
AB	AK	1	215.82
AB	AK	2	231.13
AB	AK	3	200.37
AB	AK	4	145.84
AB	AK	5	236.59
AB	AL	1	96.24
AB	AL	2	103.07
AB	AL	3	89.35
AB	AL	4	65.04
AB	AL	5	105.50
AB	AM	1	178.74
AB	AM	2	191.42
AB	AM	3	165.95
AB	AM	4	120.79
AB	AM	5	195.95
AB	AN	1	894.85
AB	AN	2	958.33
AB	AN	3	830.81
AB	AN	4	604.72
AB	AN	5	981.00
AB	AO	1	641.20
AB	AO	2	686.68
AB	AO	3	595.31
AB	AO	4	433.31
AB	AO	5	702.93
AB	AP	1	251.79
AB	AP	2	269.65
AB	AP	3	233.77
AB	AP	4	170.15
AB	AP	5	276.03
AB	AQ	1	314.84
AB	AQ	2	337.17
AB	AQ	3	292.31
AB	AQ	4	212.76
AB	AQ	5	345.15
AB	AR	1	123.93
AB	AR	2	132.72
AB	AR	3	115.06
AB	AR	4	83.75
AB	AR	5	135.86
AB	AS	1	113.68
AB	AS	2	121.75
AB	AS	3	105.55
AB	AS	4	76.82
AB	AS	5	124.63
AB	AT	1	409.06
AB	AT	2	438.07
AB	AT	3	379.78
AB	AT	4	276.43
AB	AT	5	448.44
AC	AA	1	44.53
AC	AA	2	47.69
AC	AA	3	41.35
AC	AA	4	30.10
AC	AA	5	48.82
AC	AB	1	111.34
AC	AB	2	119.23
AC	AB	3	103.37
AC	AB	4	75.24
AC	AB	5	122.05
AC	AD	1	227.08
AC	AD	2	243.19
AC	AD	3	210.83
AC	AD	4	153.46
AC	AD	5	248.94
AC	AE	1	157.45
AC	AE	2	168.62
AC	AE	3	146.18
AC	AE	4	106.40
AC	AE	5	172.61
AC	AF	1	111.34
AC	AF	2	119.23
AC	AF	3	103.37
AC	AF	4	75.24
AC	AF	5	122.05
AC	AG	1	227.08
AC	AG	2	243.19
AC	AG	3	210.83
AC	AG	4	153.46
AC	AG	5	248.94
AC	AH	1	248.96
AC	AH	2	266.61
AC	AH	3	231.14
AC	AH	4	168.24
AC	AH	5	272.92
AC	AI	1	1135.41
AC	AI	2	1215.95
AC	AI	3	1054.15
AC	AI	4	767.29
AC	AI	5	1244.72
AC	AJ	1	1037.04
AC	AJ	2	1110.60
AC	AJ	3	962.82
AC	AJ	4	700.81
AC	AJ	5	1136.88
AC	AK	1	253.01
AC	AK	2	270.95
AC	AK	3	234.90
AC	AK	4	170.98
AC	AK	5	277.36
AC	AL	1	193.53
AC	AL	2	207.26
AC	AL	3	179.68
AC	AL	4	130.78
AC	AL	5	212.16
AC	AM	1	247.86
AC	AM	2	265.44
AC	AM	3	230.12
AC	AM	4	167.50
AC	AM	5	271.72
AC	AN	1	1005.78
AC	AN	2	1077.12
AC	AN	3	933.79
AC	AN	4	679.68
AC	AN	5	1102.60
AC	AO	1	751.93
AC	AO	2	805.27
AC	AO	3	698.12
AC	AO	4	508.14
AC	AO	5	824.32
AC	AP	1	284.11
AC	AP	2	304.27
AC	AP	3	263.78
AC	AP	4	192.00
AC	AP	5	311.46
AC	AQ	1	423.51
AC	AQ	2	453.55
AC	AQ	3	393.20
AC	AQ	4	286.20
AC	AQ	5	464.28
AC	AR	1	132.31
AC	AR	2	141.69
AC	AR	3	122.84
AC	AR	4	89.41
AC	AR	5	145.05
AC	AS	1	217.61
AC	AS	2	233.04
AC	AS	3	202.03
AC	AS	4	147.05
AC	AS	5	238.56
AC	AT	1	520.37
AC	AT	2	557.28
AC	AT	3	483.13
AC	AT	4	351.66
AC	AT	5	570.47
AD	AA	1	239.83
AD	AA	2	256.84
AD	AA	3	222.66
AD	AA	4	162.07
AD	AA	5	262.91
AD	AB	1	119.91
AD	AB	2	128.42
AD	AB	3	111.33
AD	AB	4	81.03
AD	AB	5	131.46
AD	AC	1	227.08
AD	AC	2	243.19
AD	AC	3	210.83
AD	AC	4	153.46
AD	AC	5	248.94
AD	AE	1	129.84
AD	AE	2	139.05
AD	AE	3	120.55
AD	AE	4	87.74
AD	AE	5	142.34
AD	AF	1	271.81
AD	AF	2	291.09
AD	AF	3	252.35
AD	AF	4	183.68
AD	AF	5	297.97
AD	AG	1	89.07
AD	AG	2	95.39
AD	AG	3	82.69
AD	AG	4	60.19
AD	AG	5	97.64
AD	AH	1	66.80
AD	AH	2	71.54
AD	AH	3	62.02
AD	AH	4	45.14
AD	AH	5	73.23
AD	AI	1	908.33
AD	AI	2	972.76
AD	AI	3	843.32
AD	AI	4	613.83
AD	AI	5	995.77
AD	AJ	1	810.54
AD	AJ	2	868.04
AD	AJ	3	752.53
AD	AJ	4	547.75
AD	AJ	5	888.57
AD	AK	1	191.83
AD	AK	2	205.44
AD	AK	3	178.10
AD	AK	4	129.64
AD	AK	5	210.30
AD	AL	1	116.78
AD	AL	2	125.06
AD	AL	3	108.42
AD	AL	4	78.92
AD	AL	5	128.02
AD	AM	1	121.90
AD	AM	2	130.54
AD	AM	3	113.17
AD	AM	4	82.38
AD	AM	5	133.63
AD	AN	1	789.91
AD	AN	2	845.94
AD	AN	3	733.38
AD	AN	4	533.81
AD	AN	5	865.96
AD	AO	1	526.51
AD	AO	2	563.86
AD	AO	3	488.83
AD	AO	4	355.81
AD	AO	5	577.20
AD	AP	1	224.74
AD	AP	2	240.68
AD	AP	3	208.66
AD	AP	4	151.88
AD	AP	5	246.38
AD	AQ	1	196.44
AD	AQ	2	210.38
AD	AQ	3	182.39
AD	AQ	4	132.75
AD	AQ	5	215.36
AD	AR	1	172.45
AD	AR	2	184.68
AD	AR	3	160.11
AD	AR	4	116.54
AD	AR	5	189.05
AD	AS	1	101.26
AD	AS	2	108.45
AD	AS	3	94.02
AD	AS	4	68.43
AD	AS	5	111.01
AD	AT	1	302.39
AD	AT	2	323.84
AD	AT	3	280.75
AD	AT	4	204.35
AD	AT	5	331.51
AE	AA	1	191.55
AE	AA	2	205.14
AE	AA	3	177.84
AE	AA	4	129.45
AE	AA	5	209.99
AE	AB	1	111.34
AE	AB	2	119.23
AE	AB	3	103.37
AE	AB	4	75.24
AE	AB	5	122.05
AE	AC	1	157.45
AE	AC	2	168.62
AE	AC	3	146.18
AE	AC	4	106.40
AE	AC	5	172.61
AE	AD	1	129.84
AE	AD	2	139.05
AE	AD	3	120.55
AE	AD	4	87.74
AE	AD	5	142.34
AE	AF	1	248.96
AE	AF	2	266.61
AE	AF	3	231.14
AE	AF	4	168.24
AE	AF	5	272.92
AE	AG	1	191.55
AE	AG	2	205.14
AE	AG	3	177.84
AE	AG	4	129.45
AE	AG	5	209.99
AE	AH	1	111.34
AE	AH	2	119.23
AE	AH	3	103.37
AE	AH	4	75.24
AE	AH	5	122.05
AE	AI	1	1008.19
AE	AI	2	1079.71
AE	AI	3	936.04
AE	AI	4	681.32
AE	AI	5	1105.25
AE	AJ	1	904.23
AE	AJ	2	968.37
AE	AJ	3	839.51
AE	AJ	4	611.06
AE	AJ	5	991.28
AE	AK	1	105.74
AE	AK	2	113.24
AE	AK	3	98.17
AE	AK	4	71.46
AE	AK	5	115.92
AE	AL	1	190.10
AE	AL	2	203.59
AE	AL	3	176.50
AE	AL	4	128.47
AE	AL	5	208.40
AE	AM	1	91.65
AE	AM	2	98.15
AE	AM	3	85.09
AE	AM	4	61.93
AE	AM	5	100.47
AE	AN	1	911.75
AE	AN	2	976.43
AE	AN	3	846.50
AE	AN	4	616.14
AE	AN	5	999.53
AE	AO	1	638.32
AE	AO	2	683.59
AE	AO	3	592.63
AE	AO	4	431.36
AE	AO	5	699.76
AE	AP	1	141.22
AE	AP	2	151.24
AE	AP	3	131.11
AE	AP	4	95.43
AE	AP	5	154.82
AE	AQ	1	306.33
AE	AQ	2	328.06
AE	AQ	3	284.41
AE	AQ	4	207.01
AE	AQ	5	335.82
AE	AR	1	46.18
AE	AR	2	49.46
AE	AR	3	42.87
AE	AR	4	31.21
AE	AR	5	50.63
AE	AS	1	194.38
AE	AS	2	208.16
AE	AS	3	180.47
AE	AS	4	131.36
AE	AS	5	213.09
AE	AT	1	426.29
AE	AT	2	456.53
AE	AT	3	395.78
AE	AT	4	288.08
AE	AT	5	467.33
AF	AA	1	66.80
AF	AA	2	71.54
AF	AA	3	62.02
AF	AA	4	45.14
AF	AA	5	73.23
AF	AB	1	157.45
AF	AB	2	168.62
AF	AB	3	146.18
AF	AB	4	106.40
AF	AB	5	172.61
AF	AC	1	111.34
AF	AC	2	119.23
AF	AC	3	103.37
AF	AC	4	75.24
AF	AC	5	122.05
AF	AD	1	271.81
AF	AD	2	291.09
AF	AD	3	252.35
AF	AD	4	183.68
AF	AD	5	297.97
AF	AE	1	248.96
AF	AE	2	266.61
AF	AE	3	231.14
AF	AE	4	168.24
AF	AE	5	272.92
AF	AG	1	232.48
AF	AG	2	248.97
AF	AG	3	215.84
AF	AG	4	157.10
AF	AG	5	254.86
AF	AH	1	314.91
AF	AH	2	337.24
AF	AH	3	292.37
AF	AH	4	212.81
AF	AH	5	345.22
AF	AI	1	1162.39
AF	AI	2	1244.84
AF	AI	3	1079.20
AF	AI	4	785.52
AF	AI	5	1274.29
AF	AJ	1	1071.15
AF	AJ	2	1147.13
AF	AJ	3	994.49
AF	AJ	4	723.86
AF	AJ	5	1174.26
AF	AK	1	352.42
AF	AK	2	377.42
AF	AK	3	327.20
AF	AK	4	238.16
AF	AK	5	386.35
AF	AL	1	188.07
AF	AL	2	201.41
AF	AL	3	174.61
AF	AL	4	127.09
AF	AL	5	206.17
AF	AM	1	331.32
AF	AM	2	354.82
AF	AM	3	307.61
AF	AM	4	223.90
AF	AM	5	363.22
AF	AN	1	1002.92
AF	AN	2	1074.06
AF	AN	3	931.14
AF	AN	4	677.75
AF	AN	5	1099.47
AF	AO	1	770.64
AF	AO	2	825.31
AF	AO	3	715.49
AF	AO	4	520.78
AF	AO	5	844.83
AF	AP	1	385.96
AF	AP	2	413.34
AF	AP	3	358.34
AF	AP	4	260.82
AF	AP	5	423.12
AF	AQ	1	457.64
AF	AQ	2	490.10
AF	AQ	3	424.89
AF	AQ	4	309.26
AF	AQ	5	501.70
AF	AR	1	235.64
AF	AR	2	252.35
AF	AR	3	218.77
AF	AR	4	159.24
AF	AR	5	258.32
AF	AS	1	217.45
AF	AS	2	232.88
AF	AS	3	201.89
AF	AS	4	146.95
AF	AS	5	238.39
AF	AT	1	530.27
AF	AT	2	567.88
AF	AT	3	492.32
AF	AT	4	358.34
AF	AT	5	581.32
AG	AA	1	222.67
AG	AA	2	238.47
AG	AA	3	206.74
AG	AA	4	150.48
AG	AA	5	244.11
AG	AB	1	119.91
AG	AB	2	128.42
AG	AB	3	111.33
AG	AB	4	81.03
AG	AB	5	131.46
AG	AC	1	227.08
AG	AC	2	243.19
AG	AC	3	210.83
AG	AC	4	153.46
AG	AC	5	248.94
AG	AD	1	89.07
AG	AD	2	95.39
AG	AD	3	82.69
AG	AD	4	60.19
AG	AD	5	97.64
AG	AE	1	191.55
AG	AE	2	205.14
AG	AE	3	177.84
AG	AE	4	129.45
AG	AE	5	209.99
AG	AF	1	232.48
AG	AF	2	248.97
AG	AF	3	215.84
AG	AF	4	157.10
AG	AF	5	254.86
AG	AH	1	155.87
AG	AH	2	166.93
AG	AH	3	144.72
AG	AH	4	105.33
AG	AH	5	170.88
AG	AI	1	929.91
AG	AI	2	995.87
AG	AI	3	863.36
AG	AI	4	628.41
AG	AI	5	1019.43
AG	AJ	1	839.39
AG	AJ	2	898.93
AG	AJ	3	779.32
AG	AJ	4	567.24
AG	AJ	5	920.20
AG	AK	1	273.92
AG	AK	2	293.35
AG	AK	3	254.32
AG	AK	4	185.11
AG	AK	5	300.29
AG	AL	1	45.30
AG	AL	2	48.51
AG	AL	3	42.06
AG	AL	4	30.61
AG	AL	5	49.66
AG	AM	1	208.84
AG	AM	2	223.65
AG	AM	3	193.89
AG	AM	4	141.13
AG	AM	5	228.95
AG	AN	1	780.67
AG	AN	2	836.05
AG	AN	3	724.80
AG	AN	4	527.56
AG	AN	5	855.83
AG	AO	1	538.60
AG	AO	2	576.80
AG	AO	3	500.05
AG	AO	4	363.97
AG	AO	5	590.45
AG	AP	1	308.52
AG	AP	2	330.41
AG	AP	3	286.44
AG	AP	4	208.49
AG	AP	5	338.23
AG	AQ	1	229.64
AG	AQ	2	245.93
AG	AQ	3	213.21
AG	AQ	4	155.19
AG	AQ	5	251.75
AG	AR	1	224.14
AG	AR	2	240.03
AG	AR	3	208.09
AG	AR	4	151.47
AG	AR	5	245.71
AG	AS	1	16.86
AG	AS	2	18.05
AG	AS	3	15.65
AG	AS	4	11.39
AG	AS	5	18.48
AG	AT	1	299.74
AG	AT	2	321.00
AG	AT	3	278.29
AG	AT	4	202.56
AG	AT	5	328.59
AH	AA	1	271.81
AH	AA	2	291.09
AH	AA	3	252.35
AH	AA	4	183.68
AH	AA	5	297.97
AH	AB	1	157.45
AH	AB	2	168.62
AH	AB	3	146.18
AH	AB	4	106.40
AH	AB	5	172.61
AH	AC	1	248.96
AH	AC	2	266.61
AH	AC	3	231.14
AH	AC	4	168.24
AH	AC	5	272.92
AH	AD	1	66.80
AH	AD	2	71.54
AH	AD	3	62.02
AH	AD	4	45.14
AH	AD	5	73.23
AH	AE	1	111.34
AH	AE	2	119.23
AH	AE	3	103.37
AH	AE	4	75.24
AH	AE	5	122.05
AH	AF	1	314.91
AH	AF	2	337.24
AH	AF	3	292.37
AH	AF	4	212.81
AH	AF	5	345.22
AH	AG	1	155.87
AH	AG	2	166.93
AH	AG	3	144.72
AH	AG	4	105.33
AH	AG	5	170.88
AH	AI	1	897.62
AH	AI	2	961.29
AH	AI	3	833.38
AH	AI	4	606.59
AH	AI	5	984.04
AH	AJ	1	794.79
AH	AJ	2	851.17
AH	AJ	3	737.91
AH	AJ	4	537.10
AH	AJ	5	871.30
AH	AK	1	136.15
AH	AK	2	145.81
AH	AK	3	126.41
AH	AK	4	92.01
AH	AK	5	149.26
AH	AL	1	180.94
AH	AL	2	193.77
AH	AL	3	167.99
AH	AL	4	122.27
AH	AL	5	198.36
AH	AM	1	60.87
AH	AM	2	65.18
AH	AM	3	56.51
AH	AM	4	41.13
AH	AM	5	66.73
AH	AN	1	803.28
AH	AN	2	860.26
AH	AN	3	745.79
AH	AN	4	542.84
AH	AN	5	880.61
AH	AO	1	527.23
AH	AO	2	564.63
AH	AO	3	489.50
AH	AO	4	356.29
AH	AO	5	577.99
AH	AP	1	165.56
AH	AP	2	177.31
AH	AP	3	153.71
AH	AP	4	111.88
AH	AP	5	181.50
AH	AQ	1	195.95
AH	AQ	2	209.85
AH	AQ	3	181.92
AH	AQ	4	132.42
AH	AQ	5	214.81
AH	AR	1	157.41
AH	AR	2	168.57
AH	AR	3	146.14
AH	AR	4	106.37
AH	AR	5	172.56
AH	AS	1	167.76
AH	AS	2	179.66
AH	AS	3	155.76
AH	AS	4	113.37
AH	AS	5	183.91
AH	AT	1	321.02
AH	AT	2	343.79
AH	AT	3	298.04
AH	AT	4	216.94
AH	AT	5	351.92
AI	AA	1	1144.98
AI	AA	2	1226.20
AI	AA	3	1063.04
AI	AA	4	773.75
AI	AA	5	1255.21
AI	AB	1	1026.47
AI	AB	2	1099.28
AI	AB	3	953.01
AI	AB	4	693.67
AI	AB	5	1125.29
AI	AC	1	1135.41
AI	AC	2	1215.95
AI	AC	3	1054.15
AI	AC	4	767.29
AI	AC	5	1244.72
AI	AD	1	908.33
AI	AD	2	972.76
AI	AD	3	843.32
AI	AD	4	613.83
AI	AD	5	995.77
AI	AE	1	1008.19
AI	AE	2	1079.71
AI	AE	3	936.04
AI	AE	4	681.32
AI	AE	5	1105.25
AI	AF	1	1162.39
AI	AF	2	1244.84
AI	AF	3	1079.20
AI	AF	4	785.52
AI	AF	5	1274.29
AI	AG	1	929.91
AI	AG	2	995.87
AI	AG	3	863.36
AI	AG	4	628.41
AI	AG	5	1019.43
AI	AH	1	897.62
AI	AH	2	961.29
AI	AH	3	833.38
AI	AH	4	606.59
AI	AH	5	984.04
AI	AJ	1	119.91
AI	AJ	2	128.42
AI	AJ	3	111.33
AI	AJ	4	81.03
AI	AJ	5	131.46
AI	AK	1	979.43
AI	AK	2	1048.90
AI	AK	3	909.33
AI	AK	4	661.88
AI	AK	5	1073.72
AI	AL	1	974.53
AI	AL	2	1043.65
AI	AL	3	904.78
AI	AL	4	658.56
AI	AL	5	1068.34
AI	AM	1	927.30
AI	AM	2	993.08
AI	AM	3	860.94
AI	AM	4	626.65
AI	AM	5	1016.57
AI	AN	1	323.72
AI	AN	2	346.69
AI	AN	3	300.56
AI	AN	4	218.77
AI	AN	5	354.89
AI	AO	1	394.70
AI	AO	2	422.69
AI	AO	3	366.45
AI	AO	4	266.73
AI	AO	5	432.69
AI	AP	1	980.30
AI	AP	2	1049.84
AI	AP	3	910.14
AI	AP	4	662.47
AI	AP	5	1074.67
AI	AQ	1	711.93
AI	AQ	2	762.43
AI	AQ	3	660.98
AI	AQ	4	481.11
AI	AQ	5	780.47
AI	AR	1	1053.57
AI	AR	2	1128.30
AI	AR	3	978.16
AI	AR	4	711.98
AI	AR	5	1154.99
AI	AS	1	945.09
AI	AS	2	1012.13
AI	AS	3	877.45
AI	AS	4	638.67
AI	AS	5	1036.07
AI	AT	1	636.70
AI	AT	2	681.87
AI	AT	3	591.14
AI	AT	4	430.27
AI	AT	5	698.00
AJ	AA	1	1049.40
AJ	AA	2	1123.84
AJ	AA	3	974.30
AJ	AA	4	709.16
AJ	AA	5	1150.42
AJ	AB	1	929.91
AJ	AB	2	995.87
AJ	AB	3	863.36
AJ	AB	4	628.41
AJ	AB	5	1019.43
AJ	AC	1	1037.04
AJ	AC	2	1110.60
AJ	AC	3	962.82
AJ	AC	4	700.81
AJ	AC	5	1136.88
AJ	AD	1	810.54
AJ	AD	2	868.04
AJ	AD	3	752.53
AJ	AD	4	547.75
AJ	AD	5	888.57
AJ	AE	1	904.23
AJ	AE	2	968.37
AJ	AE	3	839.51
AJ	AE	4	611.06
AJ	AE	5	991.28
AJ	AF	1	1071.15
AJ	AF	2	1147.13
AJ	AF	3	994.49
AJ	AF	4	723.86
AJ	AF	5	1174.26
AJ	AG	1	839.39
AJ	AG	2	898.93
AJ	AG	3	779.32
AJ	AG	4	567.24
AJ	AG	5	920.20
AJ	AH	1	794.79
AJ	AH	2	851.17
AJ	AH	3	737.91
AJ	AH	4	537.10
AJ	AH	5	871.30
AJ	AI	1	119.91
AJ	AI	2	128.42
AJ	AI	3	111.33
AJ	AI	4	81.03
AJ	AI	5	131.46
AJ	AK	1	869.65
AJ	AK	2	931.34
AJ	AK	3	807.41
AJ	AK	4	587.69
AJ	AK	5	953.37
AJ	AL	1	884.52
AJ	AL	2	947.26
AJ	AL	3	821.22
AJ	AL	4	597.74
AJ	AL	5	969.67
AJ	AM	1	820.79
AJ	AM	2	879.01
AJ	AM	3	762.04
AJ	AM	4	554.67
AJ	AM	5	899.80
AJ	AN	1	348.67
AJ	AN	2	373.41
AJ	AN	3	323.72
AJ	AN	4	235.63
AJ	AN	5	382.24
AJ	AO	1	319.85
AJ	AO	2	342.54
AJ	AO	3	296.96
AJ	AO	4	216.15
AJ	AO	5	350.65
AJ	AP	1	868.72
AJ	AP	2	930.34
AJ	AP	3	806.54
AJ	AP	4	587.06
AJ	AP	5	952.35
AJ	AQ	1	615.39
AJ	AQ	2	659.04
AJ	AQ	3	571.34
AJ	AQ	4	415.87
AJ	AQ	5	674.63
AJ	AR	1	948.99
AJ	AR	2	1016.31
AJ	AR	3	881.08
AJ	AR	4	641.31
AJ	AR	5	1040.35
AJ	AS	1	855.16
AJ	AS	2	915.82
AJ	AS	3	793.96
AJ	AS	4	577.90
AJ	AS	5	937.48
AJ	AT	1	555.29
AJ	AT	2	594.67
AJ	AT	3	515.55
AJ	AT	4	375.25
AJ	AT	5	608.74
AK	AA	1	291.74
AK	AA	2	312.43
AK	AA	3	270.86
AK	AA	4	197.15
AK	AA	5	319.82
AK	AB	1	215.82
AK	AB	2	231.13
AK	AB	3	200.37
AK	AB	4	145.84
AK	AB	5	236.59
AK	AC	1	253.01
AK	AC	2	270.95
AK	AC	3	234.90
AK	AC	4	170.98
AK	AC	5	277.36
AK	AD	1	191.83
AK	AD	2	205.44
AK	AD	3	178.10
AK	AD	4	129.64
AK	AD	5	210.30
AK	AE	1	105.74
AK	AE	2	113.24
AK	AE	3	98.17
AK	AE	4	71.46
AK	AE	5	115.92
AK	AF	1	352.42
AK	AF	2	377.42
AK	AF	3	327.20
AK	AF	4	238.16
AK	AF	5	386.35
AK	AG	1	273.92
AK	AG	2	293.35
AK	AG	3	254.32
AK	AG	4	185.11
AK	AG	5	300.29
AK	AH	1	136.15
AK	AH	2	145.81
AK	AH	3	126.41
AK	AH	4	92.01
AK	AH	5	149.26
AK	AI	1	979.43
AK	AI	2	1048.90
AK	AI	3	909.33
AK	AI	4	661.88
AK	AI	5	1073.72
AK	AJ	1	869.65
AK	AJ	2	931.34
AK	AJ	3	807.41
AK	AJ	4	587.69
AK	AJ	5	953.37
AL	AA	1	183.43
AL	AA	2	196.44
AL	AA	3	170.30
AL	AA	4	123.96
AL	AA	5	201.08
AL	AB	1	96.24
AL	AB	2	103.07
AL	AB	3	89.35
AL	AB	4	65.04
AL	AB	5	105.50
AL	AC	1	193.53
AL	AC	2	207.26
AL	AC	3	179.68
AL	AC	4	130.78
AL	AC	5	212.16
AL	AD	1	116.78
AL	AD	2	125.06
AL	AD	3	108.42
AL	AD	4	78.92
AL	AD	5	128.02
AL	AE	1	190.10
AL	AE	2	203.59
AL	AE	3	176.50
AL	AE	4	128.47
AL	AE	5	208.40
AL	AF	1	188.07
AL	AF	2	201.41
AL	AF	3	174.61
AL	AF	4	127.09
AL	AF	5	206.17
AL	AG	1	45.30
AL	AG	2	48.51
AL	AG	3	42.06
AL	AG	4	30.61
AL	AG	5	49.66
AL	AH	1	180.94
AL	AH	2	193.77
AL	AH	3	167.99
AL	AH	4	122.27
AL	AH	5	198.36
AL	AI	1	974.53
AL	AI	2	1043.65
AL	AI	3	904.78
AL	AI	4	658.56
AL	AI	5	1068.34
AL	AJ	1	884.52
AL	AJ	2	947.26
AL	AJ	3	821.22
AL	AJ	4	597.74
AL	AJ	5	969.67
AM	AA	1	278.92
AM	AA	2	298.70
AM	AA	3	258.96
AM	AA	4	188.49
AM	AA	5	305.77
AM	AB	1	178.74
AM	AB	2	191.42
AM	AB	3	165.95
AM	AB	4	120.79
AM	AB	5	195.95
AM	AC	1	247.86
AM	AC	2	265.44
AM	AC	3	230.12
AM	AC	4	167.50
AM	AC	5	271.72
AM	AD	1	121.90
AM	AD	2	130.54
AM	AD	3	113.17
AM	AD	4	82.38
AM	AD	5	133.63
AM	AE	1	91.65
AM	AE	2	98.15
AM	AE	3	85.09
AM	AE	4	61.93
AM	AE	5	100.47
AM	AF	1	331.32
AM	AF	2	354.82
AM	AF	3	307.61
AM	AF	4	223.90
AM	AF	5	363.22
AM	AG	1	208.84
AM	AG	2	223.65
AM	AG	3	193.89
AM	AG	4	141.13
AM	AG	5	228.95
AM	AH	1	60.87
AM	AH	2	65.18
AM	AH	3	56.51
AM	AH	4	41.13
AM	AH	5	66.73
AM	AI	1	927.30
AM	AI	2	993.08
AM	AI	3	860.94
AM	AI	4	626.65
AM	AI	5	1016.57
AM	AJ	1	820.79
AM	AJ	2	879.01
AM	AJ	3	762.04
AM	AJ	4	554.67
AM	AJ	5	899.80
AN	AA	1	1003.15
AN	AA	2	1074.31
AN	AA	3	931.36
AN	AA	4	677.91
AN	AA	5	1099.72
AN	AB	1	894.85
AN	AB	2	958.33
AN	AB	3	830.81
AN	AB	4	604.72
AN	AB	5	981.00
AN	AC	1	1005.78
AN	AC	2	1077.12
AN	AC	3	933.79
AN	AC	4	679.68
AN	AC	5	1102.60
AN	AD	1	789.91
AN	AD	2	845.94
AN	AD	3	733.38
AN	AD	4	533.81
AN	AD	5	865.96
AN	AE	1	911.75
AN	AE	2	976.43
AN	AE	3	846.50
AN	AE	4	616.14
AN	AE	5	999.53
AN	AF	1	1002.92
AN	AF	2	1074.06
AN	AF	3	931.14
AN	AF	4	677.75
AN	AF	5	1099.47
AN	AG	1	780.67
AN	AG	2	836.05
AN	AG	3	724.80
AN	AG	4	527.56
AN	AG	5	855.83
AN	AH	1	803.28
AN	AH	2	860.26
AN	AH	3	745.79
AN	AH	4	542.84
AN	AH	5	880.61
AN	AI	1	323.72
AN	AI	2	346.69
AN	AI	3	300.56
AN	AI	4	218.77
AN	AI	5	354.89
AN	AJ	1	348.67
AN	AJ	2	373.41
AN	AJ	3	323.72
AN	AJ	4	235.63
AN	AJ	5	382.24
AO	AA	1	757.51
AO	AA	2	811.24
AO	AA	3	703.30
AO	AA	4	511.91
AO	AA	5	830.44
AO	AB	1	641.20
AO	AB	2	686.68
AO	AB	3	595.31
AO	AB	4	433.31
AO	AB	5	702.93
AO	AC	1	751.93
AO	AC	2	805.27
AO	AC	3	698.12
AO	AC	4	508.14
AO	AC	5	824.32
AO	AD	1	526.51
AO	AD	2	563.86
AO	AD	3	488.83
AO	AD	4	355.81
AO	AD	5	577.20
AO	AE	1	638.32
AO	AE	2	683.59
AO	AE	3	592.63
AO	AE	4	431.36
AO	AE	5	699.76
AO	AF	1	770.64
AO	AF	2	825.31
AO	AF	3	715.49
AO	AF	4	520.78
AO	AF	5	844.83
AO	AG	1	538.60
AO	AG	2	576.80
AO	AG	3	500.05
AO	AG	4	363.97
AO	AG	5	590.45
AO	AH	1	527.23
AO	AH	2	564.63
AO	AH	3	489.50
AO	AH	4	356.29
AO	AH	5	577.99
AO	AI	1	394.70
AO	AI	2	422.69
AO	AI	3	366.45
AO	AI	4	266.73
AO	AI	5	432.69
AO	AJ	1	319.85
AO	AJ	2	342.54
AO	AJ	3	296.96
AO	AJ	4	216.15
AO	AJ	5	350.65
AP	AA	1	324.10
AP	AA	2	347.09
AP	AA	3	300.91
AP	AA	4	219.02
AP	AA	5	355.30
AP	AB	1	251.79
AP	AB	2	269.65
AP	AB	3	233.77
AP	AB	4	170.15
AP	AB	5	276.03
AP	AC	1	284.11
AP	AC	2	304.27
AP	AC	3	263.78
AP	AC	4	192.00
AP	AC	5	311.46
AP	AD	1	224.74
AP	AD	2	240.68
AP	AD	3	208.66
AP	AD	4	151.88
AP	AD	5	246.38
AP	AE	1	141.22
AP	AE	2	151.24
AP	AE	3	131.11
AP	AE	4	95.43
AP	AE	5	154.82
AP	AF	1	385.96
AP	AF	2	413.34
AP	AF	3	358.34
AP	AF	4	260.82
AP	AF	5	423.12
AP	AG	1	308.52
AP	AG	2	330.41
AP	AG	3	286.44
AP	AG	4	208.49
AP	AG	5	338.23
AP	AH	1	165.56
AP	AH	2	177.31
AP	AH	3	153.71
AP	AH	4	111.88
AP	AH	5	181.50
AP	AI	1	980.30
AP	AI	2	1049.84
AP	AI	3	910.14
AP	AI	4	662.47
AP	AI	5	1074.67
AP	AJ	1	868.72
AP	AJ	2	930.34
AP	AJ	3	806.54
AP	AJ	4	587.06
AP	AJ	5	952.35
AQ	AA	1	434.07
AQ	AA	2	464.86
AQ	AA	3	403.00
AQ	AA	4	293.33
AQ	AA	5	475.85
AQ	AB	1	314.84
AQ	AB	2	337.17
AQ	AB	3	292.31
AQ	AB	4	212.76
AQ	AB	5	345.15
AQ	AC	1	423.51
AQ	AC	2	453.55
AQ	AC	3	393.20
AQ	AC	4	286.20
AQ	AC	5	464.28
AQ	AD	1	196.44
AQ	AD	2	210.38
AQ	AD	3	182.39
AQ	AD	4	132.75
AQ	AD	5	215.36
AQ	AE	1	306.33
AQ	AE	2	328.06
AQ	AE	3	284.41
AQ	AE	4	207.01
AQ	AE	5	335.82
AQ	AF	1	457.64
AQ	AF	2	490.10
AQ	AF	3	424.89
AQ	AF	4	309.26
AQ	AF	5	501.70
AQ	AG	1	229.64
AQ	AG	2	245.93
AQ	AG	3	213.21
AQ	AG	4	155.19
AQ	AG	5	251.75
AQ	AH	1	195.95
AQ	AH	2	209.85
AQ	AH	3	181.92
AQ	AH	4	132.42
AQ	AH	5	214.81
AQ	AI	1	711.93
AQ	AI	2	762.43
AQ	AI	3	660.98
AQ	AI	4	481.11
AQ	AI	5	780.47
AQ	AJ	1	615.39
AQ	AJ	2	659.04
AQ	AJ	3	571.34
AQ	AJ	4	415.87
AQ	AJ	5	674.63
AR	AA	1	172.45
AR	AA	2	184.68
AR	AA	3	160.11
AR	AA	4	116.54
AR	AA	5	189.05
AR	AB	1	123.93
AR	AB	2	132.72
AR	AB	3	115.06
AR	AB	4	83.75
AR	AB	5	135.86
AR	AC	1	132.31
AR	AC	2	141.69
AR	AC	3	122.84
AR	AC	4	89.41
AR	AC	5	145.05
AR	AD	1	172.45
AR	AD	2	184.68
AR	AD	3	160.11
AR	AD	4	116.54
AR	AD	5	189.05
AR	AE	1	46.18
AR	AE	2	49.46
AR	AE	3	42.87
AR	AE	4	31.21
AR	AE	5	50.63
AR	AF	1	235.64
AR	AF	2	252.35
AR	AF	3	218.77
AR	AF	4	159.24
AR	AF	5	258.32
AR	AG	1	224.14
AR	AG	2	240.03
AR	AG	3	208.09
AR	AG	4	151.47
AR	AG	5	245.71
AR	AH	1	157.41
AR	AH	2	168.57
AR	AH	3	146.14
AR	AH	4	106.37
AR	AH	5	172.56
AR	AI	1	1053.57
AR	AI	2	1128.30
AR	AI	3	978.16
AR	AI	4	711.98
AR	AI	5	1154.99
AR	AJ	1	948.99
AR	AJ	2	1016.31
AR	AJ	3	881.08
AR	AJ	4	641.31
AR	AJ	5	1040.35
AS	AA	1	210.60
AS	AA	2	225.53
AS	AA	3	195.52
AS	AA	4	142.32
AS	AA	5	230.87
AS	AB	1	113.68
AS	AB	2	121.75
AS	AB	3	105.55
AS	AB	4	76.82
AS	AB	5	124.63
AS	AC	1	217.61
AS	AC	2	233.04
AS	AC	3	202.03
AS	AC	4	147.05
AS	AC	5	238.56
AS	AD	1	101.26
AS	AD	2	108.45
AS	AD	3	94.02
AS	AD	4	68.43
AS	AD	5	111.01
AS	AE	1	194.38
AS	AE	2	208.16
AS	AE	3	180.47
AS	AE	4	131.36
AS	AE	5	213.09
AS	AF	1	217.45
AS	AF	2	232.88
AS	AF	3	201.89
AS	AF	4	146.95
AS	AF	5	238.39
AS	AG	1	16.86
AS	AG	2	18.05
AS	AG	3	15.65
AS	AG	4	11.39
AS	AG	5	18.48
AS	AH	1	167.76
AS	AH	2	179.66
AS	AH	3	155.76
AS	AH	4	113.37
AS	AH	5	183.91
AS	AI	1	945.09
AS	AI	2	1012.13
AS	AI	3	877.45
AS	AI	4	638.67
AS	AI	5	1036.07
AS	AJ	1	855.16
AS	AJ	2	915.82
AS	AJ	3	793.96
AS	AJ	4	577.90
AS	AJ	5	937.48
AT	AA	1	521.51
AT	AA	2	558.50
AT	AA	3	484.18
AT	AA	4	352.42
AT	AA	5	571.71
AT	AB	1	409.06
AT	AB	2	438.07
AT	AB	3	379.78
AT	AB	4	276.43
AT	AB	5	448.44
AT	AC	1	520.37
AT	AC	2	557.28
AT	AC	3	483.13
AT	AC	4	351.66
AT	AC	5	570.47
AT	AD	1	302.39
AT	AD	2	323.84
AT	AD	3	280.75
AT	AD	4	204.35
AT	AD	5	331.51
AT	AE	1	426.29
AT	AE	2	456.53
AT	AE	3	395.78
AT	AE	4	288.08
AT	AE	5	467.33
AT	AF	1	530.27
AT	AF	2	567.88
AT	AF	3	492.32
AT	AF	4	358.34
AT	AF	5	581.32
AT	AG	1	299.74
AT	AG	2	321.00
AT	AG	3	278.29
AT	AG	4	202.56
AT	AG	5	328.59
AT	AH	1	321.02
AT	AH	2	343.79
AT	AH	3	298.04
AT	AH	4	216.94
AT	AH	5	351.92
AT	AI	1	636.70
AT	AI	2	681.87
AT	AI	3	591.14
AT	AI	4	430.27
AT	AI	5	698.00
AT	AJ	1	555.29
AT	AJ	2	594.67
AT	AJ	3	515.55
AT	AJ	4	375.25
AT	AJ	5	608.74
;

table R={R}  q(R)  p(R)  d(R):
	R	q	p	d	:=
	1	10.0	AA	AF
	2	40.0	AB	AG
	3	20.0	AC	AH
	4	20.0	AD	AI
	5	10.0	AE	AJ
;

